(set-info :origin "SVCOMP13 benchmarks generated by Arie Gurfinkel")
(set-info :status unsat)
(set-logic HORN)
(declare-fun cp-rel-entry () Bool)
(declare-fun cp-rel-bb1.i.i26.i.i () Bool)
(declare-fun cp-rel-bb1.i.i (Real Real Real Real) Bool)
(assert |cp-rel-entry|)
(assert (forall ((?A Real) (?B Real) (?C Real) (?D Real) (?E Bool) )(let (($x331497 (and |cp-rel-entry| (<= ?D 1.0) (>= ?C 0.0) (<= ?C 0.0) (>= ?B 0.0) (<= ?B 0.0) (>= ?A 1.0) (<= ?A 1.0) (= ?E true) (>= ?D 1.0))))
(=> $x331497 (|cp-rel-bb1.i.i| ?A ?B ?C ?D))))
)
(assert (forall ((?A Real) (?B Real) (?C Real) (?D Real) (?E Real) (?F Real) (?G Real) (?H Real) (?I Bool) (?J Bool) (?K Bool) (?L Bool) (?M Bool) (?N Bool) (?O Real) (?P Real) (?Q Bool) (?R Bool) (?S Bool) (?T Bool) (?U Bool) (?V Bool) (?W Real) (?X Real) (?Y Bool) (?Z Bool) (?A1 Bool) (?B1 Bool) (?C1 Bool) (?D1 Bool) (?E1 Bool) (?F1 Real) (?G1 Bool) (?H1 Bool) (?I1 Bool) (?J1 Bool) (?K1 Bool) (?L1 Bool) (?M1 Real) (?N1 Real) (?O1 Bool) (?P1 Bool) (?Q1 Bool) (?R1 Bool) (?S1 Bool) (?T1 Bool) (?U1 Bool) (?V1 Bool) (?W1 Bool) (?X1 Bool) (?Y1 Bool) (?Z1 Bool) (?A2 Bool) (?B2 Real) (?C2 Real) (?D2 Real) (?E2 Real) (?F2 Bool) (?G2 Bool) (?H2 Bool) (?I2 Bool) (?J2 Bool) (?K2 Real) (?L2 Bool) (?M2 Real) (?N2 Real) (?O2 Bool) (?P2 Real) (?Q2 Real) (?R2 Bool) (?S2 Real) (?T2 Bool) (?U2 Bool) (?V2 Bool) )(let (($x428033 (|cp-rel-bb1.i.i| ?E ?F ?G ?H)))
(let (($x137878 (= ?J2 (or ?V2 ?U2))))
(let (($x109605 (or (not ?I) (and ?J ?K (not ?L)))))
(let (($x250031 (or (not ?I) ?K)))
(let (($x419110 (not ?M)))
(let (($x551205 (or $x419110 (and ?I ?N (<= ?O ?P) (>= ?O ?P)) (and ?J ?Q ?L (<= ?O ?D) (>= ?O ?D)))))
(let (($x330994 (or $x419110 (and ?N (not ?Q)) (and ?Q (not ?N)))))
(let (($x624930 (or (not ?R) (and ?M ?S (not ?T)))))
(let (($x612021 (or (not ?R) ?S)))
(let (($x485810 (not ?U)))
(let (($x20192 (or $x485810 (and ?R ?V (<= ?W ?X) (>= ?W ?X)) (and ?M ?Y ?T (<= ?W ?C) (>= ?W ?C)))))
(let (($x339814 (or $x485810 (and ?V (not ?Y)) (and ?Y (not ?V)))))
(let (($x101691 (or (not ?Z) (and ?U ?A1 ?B1))))
(let (($x629257 (or (not ?Z) ?A1)))
(let (($x367046 (not ?C1)))
(let (($x935778 (or $x367046 (and ?Z ?D1 ?E1 (<= ?F1 ?A) (>= ?F1 ?A)) (and ?U ?G1 (not ?B1) (<= ?F1 1.0) (>= ?F1 1.0)))))
(let (($x605764 (or $x367046 (and ?D1 (not ?G1)) (and ?G1 (not ?D1)))))
(let (($x367565 (or (not ?H1) (and ?C1 ?I1 (not ?J1)))))
(let (($x384300 (or (not ?H1) ?I1)))
(let (($x841764 (or (not ?K1) (and ?H1 ?L1 (<= ?M1 ?N1) (>= ?M1 ?N1)) (and ?C1 ?O1 ?J1 (<= ?M1 ?O) (>= ?M1 ?O)))))
(let (($x851568 (or (not ?K1) (and ?L1 (not ?O1)) (and ?O1 (not ?L1)))))
(let (($x304224 (or (not ?P1) (and ?K1 ?Q1 (not ?R1)))))
(let (($x637402 (or (not ?P1) ?Q1)))
(let (($x400329 (or (not ?S1) (and ?P1 ?T1 ?J1))))
(let (($x259428 (or (not ?S1) ?T1)))
(let (($x231094 (or (not ?U1) (and ?P1 ?V1 (not ?J1)))))
(let (($x312664 (or (not ?U1) ?V1)))
(let (($x322554 (or (not ?W1) (and ?U1 ?X1 ?Y1))))
(let (($x167533 (or (not ?W1) ?X1)))
(let (($x428810 (and ?Z ?I2 (not ?E1) (<= ?B2 0.0) (>= ?B2 0.0) (<= ?C2 ?O) (>= ?C2 ?O) (<= ?D2 0.0) (>= ?D2 0.0))))
(let (($x228707 (>= ?C2 ?M1)))
(let (($x42931 (<= ?C2 ?M1)))
(let (($x414835 (>= ?B2 ?F1)))
(let (($x644574 (<= ?B2 ?F1)))
(let (($x536925 (and ?K1 ?H2 ?R1 $x644574 $x414835 $x42931 $x228707 (<= ?D2 ?B) (>= ?D2 ?B))))
(let (($x112218 (and ?U1 ?G2 (not ?Y1) $x644574 $x414835 $x42931 $x228707 (<= ?D2 0.0) (>= ?D2 0.0))))
(let (($x405816 (not ?Z1)))
(let (($x381025 (or $x405816 (and ?S1 ?A2 $x644574 $x414835 $x42931 $x228707 (<= ?D2 ?E2) (>= ?D2 ?E2)) (and ?W1 ?F2 $x644574 $x414835 $x42931 $x228707 (<= ?D2 ?B) (>= ?D2 ?B)) $x112218 $x536925 $x428810)))
(let (($x222102 (or $x405816 (and ?A2 (not ?F2) (not ?G2) (not ?H2) (not ?I2)) (and ?F2 (not ?A2) (not ?G2) (not ?H2) (not ?I2)) (and ?G2 (not ?A2) (not ?F2) (not ?H2) (not ?I2)) (and ?H2 (not ?A2) (not ?F2) (not ?G2) (not ?I2)) (and ?I2 (not ?A2) (not ?F2) (not ?G2) (not ?H2)))))
(let (($x387275 (= ?Z1 true)))
(let (($x88284 (= ?J2 true)))
(let (($x810391 (= ?L (= ?K2 0.0))))
(let (($x353313 (= ?M2 (ite ?L2 1.0 0.0))))
(let (($x788317 (= ?T (= ?N2 0.0))))
(let (($x254008 (= ?X (ite ?O2 1.0 0.0))))
(let (($x341615 (= ?B1 (= ?P2 0.0))))
(let (($x926815 (= ?E1 (= ?Q2 0.0))))
(let (($x421126 (= ?R2 (not (<= ?O 0.0)))))
(let (($x171134 (= ?S2 (+ (~ 1.0) ?O))))
(let (($x475255 (= ?N1 (ite ?R2 ?S2 ?O))))
(let (($x364524 (= ?R1 (= ?F1 0.0))))
(let (($x357239 (= ?T2 (not (<= ?M1 1.0)))))
(let (($x386299 (= ?Y1 (= ?M1 0.0))))
(let (($x435837 (= ?U2 (= ?W 0.0))))
(let (($x401200 (= ?V2 (= ?D2 0.0))))
(let (($x646416 (and (|cp-rel-bb1.i.i| ?A ?B ?C ?D) $x401200 $x435837 $x386299 (= ?E2 (ite ?T2 1.0 ?B)) $x357239 $x364524 $x475255 $x171134 $x421126 (= ?J1 (= ?B 0.0)) $x926815 $x341615 $x254008 (= ?O2 (= ?C 0.0)) $x788317 (= ?P (+ ?M2 ?D)) $x353313 (= ?L2 (not (<= 2.0 ?D))) $x810391 (>= ?H ?C2) (<= ?H ?C2) (>= ?G ?W) (<= ?G ?W) (>= ?F ?D2) (<= ?F ?D2) (>= ?E ?B2) (<= ?E ?B2) $x88284 $x387275 $x222102 $x381025 $x167533 $x322554 $x312664 $x231094 $x259428 $x400329 $x637402 $x304224 $x851568 $x841764 $x384300 $x367565 $x605764 $x935778 $x629257 $x101691 $x339814 $x20192 $x612021 $x624930 $x330994 $x551205 $x250031 $x109605 $x137878)))
(=> $x646416 $x428033))))))))))))))))))))))))))))))))))))))))))))))))))))))))))
)
(assert (forall ((?A Real) (?B Real) (?C Real) (?D Real) (?E Bool) (?F Bool) (?G Bool) (?H Bool) (?I Bool) (?J Bool) (?K Real) (?L Real) (?M Bool) (?N Bool) (?O Bool) (?P Bool) (?Q Bool) (?R Bool) (?S Real) (?T Real) (?U Bool) (?V Bool) (?W Bool) (?X Bool) (?Y Bool) (?Z Bool) (?A1 Bool) (?B1 Real) (?C1 Bool) (?D1 Bool) (?E1 Bool) (?F1 Bool) (?G1 Bool) (?H1 Bool) (?I1 Real) (?J1 Real) (?K1 Bool) (?L1 Bool) (?M1 Bool) (?N1 Bool) (?O1 Bool) (?P1 Bool) (?Q1 Bool) (?R1 Bool) (?S1 Bool) (?T1 Bool) (?U1 Bool) (?V1 Bool) (?W1 Bool) (?X1 Real) (?Y1 Real) (?Z1 Real) (?A2 Real) (?B2 Bool) (?C2 Bool) (?D2 Bool) (?E2 Bool) (?F2 Bool) (?G2 Real) (?H2 Bool) (?I2 Real) (?J2 Real) (?K2 Bool) (?L2 Real) (?M2 Real) (?N2 Bool) (?O2 Real) (?P2 Bool) (?Q2 Bool) (?R2 Bool) )(let (($x137878 (= ?F2 (or ?R2 ?Q2))))
(let (($x109605 (or (not ?E) (and ?F ?G (not ?H)))))
(let (($x250031 (or (not ?E) ?G)))
(let (($x419110 (not ?I)))
(let (($x699381 (or $x419110 (and ?E ?J (<= ?K ?L) (>= ?K ?L)) (and ?F ?M ?H (<= ?K ?D) (>= ?K ?D)))))
(let (($x330994 (or $x419110 (and ?J (not ?M)) (and ?M (not ?J)))))
(let (($x624930 (or (not ?N) (and ?I ?O (not ?P)))))
(let (($x612021 (or (not ?N) ?O)))
(let (($x485810 (not ?Q)))
(let (($x410676 (or $x485810 (and ?N ?R (<= ?S ?T) (>= ?S ?T)) (and ?I ?U ?P (<= ?S ?C) (>= ?S ?C)))))
(let (($x339814 (or $x485810 (and ?R (not ?U)) (and ?U (not ?R)))))
(let (($x101691 (or (not ?V) (and ?Q ?W ?X))))
(let (($x629257 (or (not ?V) ?W)))
(let (($x367046 (not ?Y)))
(let (($x332894 (or $x367046 (and ?V ?Z ?A1 (<= ?B1 ?A) (>= ?B1 ?A)) (and ?Q ?C1 (not ?X) (<= ?B1 1.0) (>= ?B1 1.0)))))
(let (($x605764 (or $x367046 (and ?Z (not ?C1)) (and ?C1 (not ?Z)))))
(let (($x367565 (or (not ?D1) (and ?Y ?E1 (not ?F1)))))
(let (($x384300 (or (not ?D1) ?E1)))
(let (($x841764 (or (not ?G1) (and ?D1 ?H1 (<= ?I1 ?J1) (>= ?I1 ?J1)) (and ?Y ?K1 ?F1 (<= ?I1 ?K) (>= ?I1 ?K)))))
(let (($x851568 (or (not ?G1) (and ?H1 (not ?K1)) (and ?K1 (not ?H1)))))
(let (($x304224 (or (not ?L1) (and ?G1 ?M1 (not ?N1)))))
(let (($x637402 (or (not ?L1) ?M1)))
(let (($x400329 (or (not ?O1) (and ?L1 ?P1 ?F1))))
(let (($x259428 (or (not ?O1) ?P1)))
(let (($x231094 (or (not ?Q1) (and ?L1 ?R1 (not ?F1)))))
(let (($x312664 (or (not ?Q1) ?R1)))
(let (($x322554 (or (not ?S1) (and ?Q1 ?T1 ?U1))))
(let (($x167533 (or (not ?S1) ?T1)))
(let (($x428810 (and ?V ?E2 (not ?A1) (<= ?X1 0.0) (>= ?X1 0.0) (<= ?Y1 ?K) (>= ?Y1 ?K) (<= ?Z1 0.0) (>= ?Z1 0.0))))
(let (($x228707 (>= ?Y1 ?I1)))
(let (($x42931 (<= ?Y1 ?I1)))
(let (($x414835 (>= ?X1 ?B1)))
(let (($x644574 (<= ?X1 ?B1)))
(let (($x856855 (and ?G1 ?D2 ?N1 $x644574 $x414835 $x42931 $x228707 (<= ?Z1 ?B) (>= ?Z1 ?B))))
(let (($x112218 (and ?Q1 ?C2 (not ?U1) $x644574 $x414835 $x42931 $x228707 (<= ?Z1 0.0) (>= ?Z1 0.0))))
(let (($x405816 (not ?V1)))
(let (($x226054 (or $x405816 (and ?O1 ?W1 $x644574 $x414835 $x42931 $x228707 (<= ?Z1 ?A2) (>= ?Z1 ?A2)) (and ?S1 ?B2 $x644574 $x414835 $x42931 $x228707 (<= ?Z1 ?B) (>= ?Z1 ?B)) $x112218 $x856855 $x428810)))
(let (($x222102 (or $x405816 (and ?W1 (not ?B2) (not ?C2) (not ?D2) (not ?E2)) (and ?B2 (not ?W1) (not ?C2) (not ?D2) (not ?E2)) (and ?C2 (not ?W1) (not ?B2) (not ?D2) (not ?E2)) (and ?D2 (not ?W1) (not ?B2) (not ?C2) (not ?E2)) (and ?E2 (not ?W1) (not ?B2) (not ?C2) (not ?D2)))))
(let (($x387275 (= ?V1 true)))
(let (($x810391 (= ?H (= ?G2 0.0))))
(let (($x353313 (= ?I2 (ite ?H2 1.0 0.0))))
(let (($x788317 (= ?P (= ?J2 0.0))))
(let (($x254008 (= ?T (ite ?K2 1.0 0.0))))
(let (($x341615 (= ?X (= ?L2 0.0))))
(let (($x926815 (= ?A1 (= ?M2 0.0))))
(let (($x421126 (= ?N2 (not (<= ?K 0.0)))))
(let (($x171134 (= ?O2 (+ (~ 1.0) ?K))))
(let (($x475255 (= ?J1 (ite ?N2 ?O2 ?K))))
(let (($x364524 (= ?N1 (= ?B1 0.0))))
(let (($x357239 (= ?P2 (not (<= ?I1 1.0)))))
(let (($x386299 (= ?U1 (= ?I1 0.0))))
(let (($x435837 (= ?Q2 (= ?S 0.0))))
(let (($x401200 (= ?R2 (= ?Z1 0.0))))
(let (($x428033 (|cp-rel-bb1.i.i| ?A ?B ?C ?D)))
(let (($x404382 (and $x428033 $x401200 $x435837 $x386299 (= ?A2 (ite ?P2 1.0 ?B)) $x357239 $x364524 $x475255 $x171134 $x421126 (= ?F1 (= ?B 0.0)) $x926815 $x341615 $x254008 (= ?K2 (= ?C 0.0)) $x788317 (= ?L (+ ?I2 ?D)) $x353313 (= ?H2 (not (<= 2.0 ?D))) $x810391 (not (= ?F2 true)) $x387275 $x222102 $x226054 $x167533 $x322554 $x312664 $x231094 $x259428 $x400329 $x637402 $x304224 $x851568 $x841764 $x384300 $x367565 $x605764 $x332894 $x629257 $x101691 $x339814 $x410676 $x612021 $x624930 $x330994 $x699381 $x250031 $x109605 $x137878)))
(=> $x404382 |cp-rel-bb1.i.i26.i.i|)))))))))))))))))))))))))))))))))))))))))))))))))))))))))
)
(assert (not cp-rel-bb1.i.i26.i.i))
(check-sat)
